p cnf 12 21
-12 -9 -7 0
-12 9 4 0
-12 7 4 0
-12 -7 -2 0
-12 6 -2 0
-12 -5 -2 0
-12 4 1 0
11 9 -8 0
-11 -7 3 0
11 -5 1 0
11 -5 -1 0
10 -4 2 0
9 -7 4 0
-9 -5 2 0
9 -4 2 0
8 6 -2 0
-8 5 -4 0
8 5 2 0
7 -6 -1 0
7 -5 4 0
-5 -4 -3 0
